$comment
tmp/babeleSqMmk
$end

$molecule
0 1
6 4.6553 -7.1279 -0.226
6 5.1714 -5.9348 -1.0788
6 6.1996 -5.225 -0.1624
6 5.5423 -4.135 0.7304
6 4.3358 -4.6886 1.5424
6 4.685 -6.0814 2.1342
6 5.4211 -6.9954 1.1148
7 6.6672 -6.3511 0.6647
6 7.8093 -6.1818 1.5889
1 4.9471 -8.0764 -0.7088
1 3.5622 -7.1414 -0.0928
1 4.3738 -5.2551 -1.4099
1 5.6879 -6.3135 -1.9776
1 7.0257 -4.7853 -0.748
1 6.3014 -3.7478 1.4265
1 5.2325 -3.2943 0.0921
8 3.1455 -4.8343 0.7349
1 4.1019 -4.0182 2.3902
1 3.7564 -6.5723 2.4672
1 5.3287 -5.9609 3.0192
1 5.6191 -7.9831 1.5658
1 8.081 -7.1633 2.0049
1 7.5976 -5.4953 2.4198
1 8.6722 -5.7956 1.0262
6 2.5717 -3.6808 0.3582
8 2.9603 -2.5816 0.7206
6 1.3731 -3.8158 -0.5442
6 0.1229 -3.4876 0.2954
6 -0.7149 -2.3916 0.0455
6 -1.8476 -2.167 0.8347
6 -2.1449 -3.0212 1.8988
6 -1.3076 -4.1069 2.166
6 -0.1852 -4.3369 1.3659
1 1.279 -4.8623 -0.8751
8 2.7125 -3.3884 -2.5826
6 1.5806 -2.9435 -1.8124
1 -0.5085 -1.6942 -0.7576
1 -2.4992 -1.3247 0.6217
1 -3.0207 -2.8412 2.5152
1 -1.53 -4.7705 2.9961
1 0.4528 -5.1879 1.5849
1 2.6094 -4.2643 -2.9424
1 0.6795 -2.9625 -2.4489
1 1.7861 -1.9006 -1.5221
$end

$rem
$end
