 $CONTRL COORD=CART UNITS=ANGS $END
 $DATA
28800242
Put symmetry info here

C      6.0     0.00000   0.00000   0.00000 
C      6.0     0.00000   0.00000   0.00000 
H      1.0     0.00000   0.00000   0.00000 
C      6.0     0.00000   0.00000   0.00000 
O      8.0     0.00000   0.00000   0.00000 
N      7.0     0.00000   0.00000   0.00000 
C      6.0     0.00000   0.00000   0.00000 
H      1.0     0.00000   0.00000   0.00000 
C      6.0     0.00000   0.00000   0.00000 
C      6.0     0.00000   0.00000   0.00000 
S     16.0     0.00000   0.00000   0.00000 
O      8.0     0.00000   0.00000   0.00000 
O      8.0     0.00000   0.00000   0.00000 
C      6.0     0.00000   0.00000   0.00000 
N      7.0     0.00000   0.00000   0.00000 
C      6.0     0.00000   0.00000   0.00000 
C      6.0     0.00000   0.00000   0.00000 
C      6.0     0.00000   0.00000   0.00000 
C      6.0     0.00000   0.00000   0.00000 
C      6.0     0.00000   0.00000   0.00000 
C      6.0     0.00000   0.00000   0.00000 
C      6.0     0.00000   0.00000   0.00000 
C      6.0     0.00000   0.00000   0.00000 
C      6.0     0.00000   0.00000   0.00000 
C      6.0     0.00000   0.00000   0.00000 
C      6.0     0.00000   0.00000   0.00000 
C      6.0     0.00000   0.00000   0.00000 
 $END


