$comment
28300142
$end

$molecule
0 1
6 0 0 0
8 0 0 0
6 0 0 0
6 0 0 0
8 0 0 0
6 0 0 0
8 0 0 0
6 0 0 0
6 0 0 0
1 0 0 0
6 0 0 0
8 0 0 0
7 0 0 0
6 0 0 0
6 0 0 0
6 0 0 0
6 0 0 0
6 0 0 0
6 0 0 0
8 0 0 0
$end

$rem
$end
