$comment
ZINC21200102
$end

$molecule
0 1
6 -9.2293 10.3277 -1.5366
6 -9.2833 10.4292 -0.1542
6 -8.4427 9.6736 0.6359
6 -7.5361 8.8053 0.0467
6 -7.4785 8.6998 -1.3512
6 -8.3354 9.4708 -2.1384
7 -6.5106 7.7852 -1.6306
6 -6.0061 7.3551 -0.5135
8 -6.6083 7.9494 0.5286
6 -4.9064 6.3306 -0.4031
16 -3.2973 7.1681 -0.4055
6 -2.1321 5.8531 -0.2723
7 -2.344 4.5534 -0.1886
7 -1.2763 3.6907 -0.0965
6 -0.0468 4.1673 -0.081
16 -0.3481 5.9229 -0.2147
7 1.1613 3.4852 0.0092
6 1.1698 2.104 0.2294
6 -0.0118 1.44 0.5311
6 -0.0003 0.0757 0.7476
6 1.1859 -0.63 0.6638
6 2.3654 0.0265 0.3636
6 2.3619 1.3921 0.1465
9 3.5143 2.0338 -0.1459
1 -9.8931 10.9245 -2.1447
1 -9.9884 11.1051 0.3066
1 -8.4902 9.7581 1.7116
1 -8.2976 9.3952 -3.2151
1 -5.0243 5.7656 0.5333
1 -4.9616 5.6399 -1.2575
1 2.1104 4.0318 -0.0926
1 -0.9399 1.9891 0.5921
1 -0.9194 -0.4406 0.9822
1 1.1911 -1.6967 0.8329
1 3.2901 -0.5278 0.299
$end

$rem
$end
