$comment
ZINC21000102
$end

$molecule
0 1
6 1.6209 -9.1564 -1.3369
6 2.4153 -8.1952 -0.4907
8 3.4098 -8.577 0.0895
6 1.9856 -6.7965 -0.3685
6 2.7786 -5.8764 0.3289
6 2.3747 -4.5763 0.4404
6 1.1768 -4.1651 -0.1383
6 0.3827 -5.0775 -0.8279
6 0.7812 -6.3785 -0.9486
7 0.7691 -2.839 -0.022
6 1.6841 -1.8494 -0.0312
8 2.8695 -2.1178 -0.0575
6 1.2466 -0.4392 -0.0092
6 2.0832 0.7023 -0.0153
6 1.2453 1.7651 0.0109
7 -0.015 1.2805 0.0315
7 0.0026 -0.004 0.0194
6 -1.228 2.1016 0.0574
1 -0.8828 3.146 0.0641
6 -2.0824 1.8052 -1.1863
6 -3.4946 2.4146 -1.0138
16 -3.7183 2.4053 0.8117
8 -3.8465 3.7447 1.2686
8 -4.7167 1.4525 1.1503
6 -2.0708 1.754 1.3176
6 1.6445 3.2182 0.0155
6 2.9064 3.6066 -0.7575
6 2.9186 3.5984 0.7725
1 0.7615 -8.6314 -1.7794
1 1.261 -9.9856 -0.7101
1 2.2604 -9.5537 -2.1389
1 3.7082 -6.1943 0.7774
1 2.9855 -3.8661 0.978
1 -0.5476 -4.7552 -1.2717
1 0.1666 -7.0846 -1.4872
1 -0.2998 -2.5989 0.0774
1 3.1628 0.7214 -0.036
1 -1.6036 2.2453 -2.0735
1 -2.171 0.7169 -1.3194
1 -3.5107 3.4289 -1.4392
1 -4.2313 1.7864 -1.5358
1 -2.0557 0.6662 1.4802
1 -1.6445 2.2618 2.1953
1 0.597 3.5538 0.0256
1 3.2176 2.7674 -1.3969
1 2.6967 4.4864 -1.3836
1 2.7189 4.4714 1.4112
1 3.2398 2.7524 1.3979
$end

$rem
$end
